Traveling Salesman Problem/TSP_generados/Aleatorio1621103343_11.tsp
NAME: Aleatorio1621103343_11.tsp
COMMENT: Randomly generated scenario
TYPE: TSP
DIMENSION: 11
EDGE_WEIGHT_TYPE: ATT
NODE_COORD_SECTION
1 10.11 47.61
2 32.59 17.56
3 25.91 0.64
4 49.52 38.2
5 22.43 11.38
6 9.78 19.02
7 35.6 17.8
8 26.81 17.11
9 23.33 16.31
10 48.15 8.48
11 12.28 42.91
