Traveling Salesman Problem/TSP_generados/Aleatorio1621103343_11.opt.tour
NAME: Aleatorio1621103343_11.opt.tour
COMMENT: Optimal solution for Aleatorio1621103343_11 (168.24188804957294)
TYPE: TOUR
DIMENSION: 11
TOUR_SECTION
1 4 10 7 2 8 9 5 3 6 11
-1
EOF
